100 100
23 35 33 21 16 10 46 36 43 41 12 43 31 37 20 36 28 18 10 26 23 31 42 34 27 20 22 27 44 13
27 18 17 40 33 41 35 32 45 16 41 13 42 29 39 49 26 43 19 18 21 35 46 21 37 30 42 14 31 47
621 630 561 840 528 410 1610 1152 1935 656 492 559 1302 1073 780 1764 728 774 190 468 483 1085 1932 714 999 600 924 378 1364 611
